(set-logic QF_LRA)
(declare-fun X0 () Real )
(declare-fun Y0 () Real )
(declare-fun X1 () Real )
(declare-fun Y1 () Real )
(declare-fun X2 () Real )
(declare-fun Y2 () Real )
(declare-fun X3 () Real )
(declare-fun Y3 () Real )
(declare-fun X4 () Real )
(declare-fun Y4 () Real )
(declare-fun X5 () Real )
(declare-fun Y5 () Real )
(declare-fun X6 () Real )
(declare-fun Y6 () Real )
(declare-fun X7 () Real )
(declare-fun Y7 () Real )
(declare-fun X8 () Real )
(declare-fun Y8 () Real )
(declare-fun X9 () Real )
(declare-fun Y9 () Real )
(declare-fun X10 () Real )
(declare-fun Y10 () Real )
(declare-fun X11 () Real )
(declare-fun Y11 () Real )
(declare-fun X12 () Real )
(declare-fun Y12 () Real )
(declare-fun X13 () Real )
(declare-fun Y13 () Real )
(declare-fun X14 () Real )
(declare-fun Y14 () Real )
(declare-fun X15 () Real )
(declare-fun Y15 () Real )
(declare-fun X16 () Real )
(declare-fun Y16 () Real )
(declare-fun X17 () Real )
(declare-fun Y17 () Real )
(declare-fun Z () Real )
(assert ( and  
( or ( <= ( + X0 35 ) X1 )  ( <= ( + X1 50 ) X0 )  ( <= ( + Y0 75 ) Y1 )  ( <= ( + Y1 96 ) Y0 )  )
( or ( <= ( + X0 35 ) X2 )  ( <= ( + X2 10 ) X0 )  ( <= ( + Y0 75 ) Y2 )  ( <= ( + Y2 87 ) Y0 )  )
( or ( <= ( + X0 35 ) X3 )  ( <= ( + X3 14 ) X0 )  ( <= ( + Y0 75 ) Y3 )  ( <= ( + Y3 19 ) Y0 )  )
( or ( <= ( + X0 35 ) X4 )  ( <= ( + X4 89 ) X0 )  ( <= ( + Y0 75 ) Y4 )  ( <= ( + Y4 14 ) Y0 )  )
( or ( <= ( + X0 35 ) X5 )  ( <= ( + X5 87 ) X0 )  ( <= ( + Y0 75 ) Y5 )  ( <= ( + Y5 8 ) Y0 )  )
( or ( <= ( + X0 35 ) X6 )  ( <= ( + X6 80 ) X0 )  ( <= ( + Y0 75 ) Y6 )  ( <= ( + Y6 31 ) Y0 )  )
( or ( <= ( + X0 35 ) X7 )  ( <= ( + X7 21 ) X0 )  ( <= ( + Y0 75 ) Y7 )  ( <= ( + Y7 59 ) Y0 )  )
( or ( <= ( + X0 35 ) X8 )  ( <= ( + X8 68 ) X0 )  ( <= ( + Y0 75 ) Y8 )  ( <= ( + Y8 30 ) Y0 )  )
( or ( <= ( + X0 35 ) X9 )  ( <= ( + X9 97 ) X0 )  ( <= ( + Y0 75 ) Y9 )  ( <= ( + Y9 67 ) Y0 )  )
( or ( <= ( + X0 35 ) X10 )  ( <= ( + X10 79 ) X0 )  ( <= ( + Y0 75 ) Y10 )  ( <= ( + Y10 7 ) Y0 )  )
( or ( <= ( + X0 35 ) X11 )  ( <= ( + X11 97 ) X0 )  ( <= ( + Y0 75 ) Y11 )  ( <= ( + Y11 76 ) Y0 )  )
( or ( <= ( + X0 35 ) X12 )  ( <= ( + X12 12 ) X0 )  ( <= ( + Y0 75 ) Y12 )  ( <= ( + Y12 83 ) Y0 )  )
( or ( <= ( + X0 35 ) X13 )  ( <= ( + X13 86 ) X0 )  ( <= ( + Y0 75 ) Y13 )  ( <= ( + Y13 94 ) Y0 )  )
( or ( <= ( + X0 35 ) X14 )  ( <= ( + X14 39 ) X0 )  ( <= ( + Y0 75 ) Y14 )  ( <= ( + Y14 78 ) Y0 )  )
( or ( <= ( + X0 35 ) X15 )  ( <= ( + X15 26 ) X0 )  ( <= ( + Y0 75 ) Y15 )  ( <= ( + Y15 44 ) Y0 )  )
( or ( <= ( + X0 35 ) X16 )  ( <= ( + X16 33 ) X0 )  ( <= ( + Y0 75 ) Y16 )  ( <= ( + Y16 59 ) Y0 )  )
( or ( <= ( + X0 35 ) X17 )  ( <= ( + X17 66 ) X0 )  ( <= ( + Y0 75 ) Y17 )  ( <= ( + Y17 18 ) Y0 )  )
( or ( <= ( + X1 50 ) X2 )  ( <= ( + X2 10 ) X1 )  ( <= ( + Y1 96 ) Y2 )  ( <= ( + Y2 87 ) Y1 )  )
( or ( <= ( + X1 50 ) X3 )  ( <= ( + X3 14 ) X1 )  ( <= ( + Y1 96 ) Y3 )  ( <= ( + Y3 19 ) Y1 )  )
( or ( <= ( + X1 50 ) X4 )  ( <= ( + X4 89 ) X1 )  ( <= ( + Y1 96 ) Y4 )  ( <= ( + Y4 14 ) Y1 )  )
( or ( <= ( + X1 50 ) X5 )  ( <= ( + X5 87 ) X1 )  ( <= ( + Y1 96 ) Y5 )  ( <= ( + Y5 8 ) Y1 )  )
( or ( <= ( + X1 50 ) X6 )  ( <= ( + X6 80 ) X1 )  ( <= ( + Y1 96 ) Y6 )  ( <= ( + Y6 31 ) Y1 )  )
( or ( <= ( + X1 50 ) X7 )  ( <= ( + X7 21 ) X1 )  ( <= ( + Y1 96 ) Y7 )  ( <= ( + Y7 59 ) Y1 )  )
( or ( <= ( + X1 50 ) X8 )  ( <= ( + X8 68 ) X1 )  ( <= ( + Y1 96 ) Y8 )  ( <= ( + Y8 30 ) Y1 )  )
( or ( <= ( + X1 50 ) X9 )  ( <= ( + X9 97 ) X1 )  ( <= ( + Y1 96 ) Y9 )  ( <= ( + Y9 67 ) Y1 )  )
( or ( <= ( + X1 50 ) X10 )  ( <= ( + X10 79 ) X1 )  ( <= ( + Y1 96 ) Y10 )  ( <= ( + Y10 7 ) Y1 )  )
( or ( <= ( + X1 50 ) X11 )  ( <= ( + X11 97 ) X1 )  ( <= ( + Y1 96 ) Y11 )  ( <= ( + Y11 76 ) Y1 )  )
( or ( <= ( + X1 50 ) X12 )  ( <= ( + X12 12 ) X1 )  ( <= ( + Y1 96 ) Y12 )  ( <= ( + Y12 83 ) Y1 )  )
( or ( <= ( + X1 50 ) X13 )  ( <= ( + X13 86 ) X1 )  ( <= ( + Y1 96 ) Y13 )  ( <= ( + Y13 94 ) Y1 )  )
( or ( <= ( + X1 50 ) X14 )  ( <= ( + X14 39 ) X1 )  ( <= ( + Y1 96 ) Y14 )  ( <= ( + Y14 78 ) Y1 )  )
( or ( <= ( + X1 50 ) X15 )  ( <= ( + X15 26 ) X1 )  ( <= ( + Y1 96 ) Y15 )  ( <= ( + Y15 44 ) Y1 )  )
( or ( <= ( + X1 50 ) X16 )  ( <= ( + X16 33 ) X1 )  ( <= ( + Y1 96 ) Y16 )  ( <= ( + Y16 59 ) Y1 )  )
( or ( <= ( + X1 50 ) X17 )  ( <= ( + X17 66 ) X1 )  ( <= ( + Y1 96 ) Y17 )  ( <= ( + Y17 18 ) Y1 )  )
( or ( <= ( + X2 10 ) X3 )  ( <= ( + X3 14 ) X2 )  ( <= ( + Y2 87 ) Y3 )  ( <= ( + Y3 19 ) Y2 )  )
( or ( <= ( + X2 10 ) X4 )  ( <= ( + X4 89 ) X2 )  ( <= ( + Y2 87 ) Y4 )  ( <= ( + Y4 14 ) Y2 )  )
( or ( <= ( + X2 10 ) X5 )  ( <= ( + X5 87 ) X2 )  ( <= ( + Y2 87 ) Y5 )  ( <= ( + Y5 8 ) Y2 )  )
( or ( <= ( + X2 10 ) X6 )  ( <= ( + X6 80 ) X2 )  ( <= ( + Y2 87 ) Y6 )  ( <= ( + Y6 31 ) Y2 )  )
( or ( <= ( + X2 10 ) X7 )  ( <= ( + X7 21 ) X2 )  ( <= ( + Y2 87 ) Y7 )  ( <= ( + Y7 59 ) Y2 )  )
( or ( <= ( + X2 10 ) X8 )  ( <= ( + X8 68 ) X2 )  ( <= ( + Y2 87 ) Y8 )  ( <= ( + Y8 30 ) Y2 )  )
( or ( <= ( + X2 10 ) X9 )  ( <= ( + X9 97 ) X2 )  ( <= ( + Y2 87 ) Y9 )  ( <= ( + Y9 67 ) Y2 )  )
( or ( <= ( + X2 10 ) X10 )  ( <= ( + X10 79 ) X2 )  ( <= ( + Y2 87 ) Y10 )  ( <= ( + Y10 7 ) Y2 )  )
( or ( <= ( + X2 10 ) X11 )  ( <= ( + X11 97 ) X2 )  ( <= ( + Y2 87 ) Y11 )  ( <= ( + Y11 76 ) Y2 )  )
( or ( <= ( + X2 10 ) X12 )  ( <= ( + X12 12 ) X2 )  ( <= ( + Y2 87 ) Y12 )  ( <= ( + Y12 83 ) Y2 )  )
( or ( <= ( + X2 10 ) X13 )  ( <= ( + X13 86 ) X2 )  ( <= ( + Y2 87 ) Y13 )  ( <= ( + Y13 94 ) Y2 )  )
( or ( <= ( + X2 10 ) X14 )  ( <= ( + X14 39 ) X2 )  ( <= ( + Y2 87 ) Y14 )  ( <= ( + Y14 78 ) Y2 )  )
( or ( <= ( + X2 10 ) X15 )  ( <= ( + X15 26 ) X2 )  ( <= ( + Y2 87 ) Y15 )  ( <= ( + Y15 44 ) Y2 )  )
( or ( <= ( + X2 10 ) X16 )  ( <= ( + X16 33 ) X2 )  ( <= ( + Y2 87 ) Y16 )  ( <= ( + Y16 59 ) Y2 )  )
( or ( <= ( + X2 10 ) X17 )  ( <= ( + X17 66 ) X2 )  ( <= ( + Y2 87 ) Y17 )  ( <= ( + Y17 18 ) Y2 )  )
( or ( <= ( + X3 14 ) X4 )  ( <= ( + X4 89 ) X3 )  ( <= ( + Y3 19 ) Y4 )  ( <= ( + Y4 14 ) Y3 )  )
( or ( <= ( + X3 14 ) X5 )  ( <= ( + X5 87 ) X3 )  ( <= ( + Y3 19 ) Y5 )  ( <= ( + Y5 8 ) Y3 )  )
( or ( <= ( + X3 14 ) X6 )  ( <= ( + X6 80 ) X3 )  ( <= ( + Y3 19 ) Y6 )  ( <= ( + Y6 31 ) Y3 )  )
( or ( <= ( + X3 14 ) X7 )  ( <= ( + X7 21 ) X3 )  ( <= ( + Y3 19 ) Y7 )  ( <= ( + Y7 59 ) Y3 )  )
( or ( <= ( + X3 14 ) X8 )  ( <= ( + X8 68 ) X3 )  ( <= ( + Y3 19 ) Y8 )  ( <= ( + Y8 30 ) Y3 )  )
( or ( <= ( + X3 14 ) X9 )  ( <= ( + X9 97 ) X3 )  ( <= ( + Y3 19 ) Y9 )  ( <= ( + Y9 67 ) Y3 )  )
( or ( <= ( + X3 14 ) X10 )  ( <= ( + X10 79 ) X3 )  ( <= ( + Y3 19 ) Y10 )  ( <= ( + Y10 7 ) Y3 )  )
( or ( <= ( + X3 14 ) X11 )  ( <= ( + X11 97 ) X3 )  ( <= ( + Y3 19 ) Y11 )  ( <= ( + Y11 76 ) Y3 )  )
( or ( <= ( + X3 14 ) X12 )  ( <= ( + X12 12 ) X3 )  ( <= ( + Y3 19 ) Y12 )  ( <= ( + Y12 83 ) Y3 )  )
( or ( <= ( + X3 14 ) X13 )  ( <= ( + X13 86 ) X3 )  ( <= ( + Y3 19 ) Y13 )  ( <= ( + Y13 94 ) Y3 )  )
( or ( <= ( + X3 14 ) X14 )  ( <= ( + X14 39 ) X3 )  ( <= ( + Y3 19 ) Y14 )  ( <= ( + Y14 78 ) Y3 )  )
( or ( <= ( + X3 14 ) X15 )  ( <= ( + X15 26 ) X3 )  ( <= ( + Y3 19 ) Y15 )  ( <= ( + Y15 44 ) Y3 )  )
( or ( <= ( + X3 14 ) X16 )  ( <= ( + X16 33 ) X3 )  ( <= ( + Y3 19 ) Y16 )  ( <= ( + Y16 59 ) Y3 )  )
( or ( <= ( + X3 14 ) X17 )  ( <= ( + X17 66 ) X3 )  ( <= ( + Y3 19 ) Y17 )  ( <= ( + Y17 18 ) Y3 )  )
( or ( <= ( + X4 89 ) X5 )  ( <= ( + X5 87 ) X4 )  ( <= ( + Y4 14 ) Y5 )  ( <= ( + Y5 8 ) Y4 )  )
( or ( <= ( + X4 89 ) X6 )  ( <= ( + X6 80 ) X4 )  ( <= ( + Y4 14 ) Y6 )  ( <= ( + Y6 31 ) Y4 )  )
( or ( <= ( + X4 89 ) X7 )  ( <= ( + X7 21 ) X4 )  ( <= ( + Y4 14 ) Y7 )  ( <= ( + Y7 59 ) Y4 )  )
( or ( <= ( + X4 89 ) X8 )  ( <= ( + X8 68 ) X4 )  ( <= ( + Y4 14 ) Y8 )  ( <= ( + Y8 30 ) Y4 )  )
( or ( <= ( + X4 89 ) X9 )  ( <= ( + X9 97 ) X4 )  ( <= ( + Y4 14 ) Y9 )  ( <= ( + Y9 67 ) Y4 )  )
( or ( <= ( + X4 89 ) X10 )  ( <= ( + X10 79 ) X4 )  ( <= ( + Y4 14 ) Y10 )  ( <= ( + Y10 7 ) Y4 )  )
( or ( <= ( + X4 89 ) X11 )  ( <= ( + X11 97 ) X4 )  ( <= ( + Y4 14 ) Y11 )  ( <= ( + Y11 76 ) Y4 )  )
( or ( <= ( + X4 89 ) X12 )  ( <= ( + X12 12 ) X4 )  ( <= ( + Y4 14 ) Y12 )  ( <= ( + Y12 83 ) Y4 )  )
( or ( <= ( + X4 89 ) X13 )  ( <= ( + X13 86 ) X4 )  ( <= ( + Y4 14 ) Y13 )  ( <= ( + Y13 94 ) Y4 )  )
( or ( <= ( + X4 89 ) X14 )  ( <= ( + X14 39 ) X4 )  ( <= ( + Y4 14 ) Y14 )  ( <= ( + Y14 78 ) Y4 )  )
( or ( <= ( + X4 89 ) X15 )  ( <= ( + X15 26 ) X4 )  ( <= ( + Y4 14 ) Y15 )  ( <= ( + Y15 44 ) Y4 )  )
( or ( <= ( + X4 89 ) X16 )  ( <= ( + X16 33 ) X4 )  ( <= ( + Y4 14 ) Y16 )  ( <= ( + Y16 59 ) Y4 )  )
( or ( <= ( + X4 89 ) X17 )  ( <= ( + X17 66 ) X4 )  ( <= ( + Y4 14 ) Y17 )  ( <= ( + Y17 18 ) Y4 )  )
( or ( <= ( + X5 87 ) X6 )  ( <= ( + X6 80 ) X5 )  ( <= ( + Y5 8 ) Y6 )  ( <= ( + Y6 31 ) Y5 )  )
( or ( <= ( + X5 87 ) X7 )  ( <= ( + X7 21 ) X5 )  ( <= ( + Y5 8 ) Y7 )  ( <= ( + Y7 59 ) Y5 )  )
( or ( <= ( + X5 87 ) X8 )  ( <= ( + X8 68 ) X5 )  ( <= ( + Y5 8 ) Y8 )  ( <= ( + Y8 30 ) Y5 )  )
( or ( <= ( + X5 87 ) X9 )  ( <= ( + X9 97 ) X5 )  ( <= ( + Y5 8 ) Y9 )  ( <= ( + Y9 67 ) Y5 )  )
( or ( <= ( + X5 87 ) X10 )  ( <= ( + X10 79 ) X5 )  ( <= ( + Y5 8 ) Y10 )  ( <= ( + Y10 7 ) Y5 )  )
( or ( <= ( + X5 87 ) X11 )  ( <= ( + X11 97 ) X5 )  ( <= ( + Y5 8 ) Y11 )  ( <= ( + Y11 76 ) Y5 )  )
( or ( <= ( + X5 87 ) X12 )  ( <= ( + X12 12 ) X5 )  ( <= ( + Y5 8 ) Y12 )  ( <= ( + Y12 83 ) Y5 )  )
( or ( <= ( + X5 87 ) X13 )  ( <= ( + X13 86 ) X5 )  ( <= ( + Y5 8 ) Y13 )  ( <= ( + Y13 94 ) Y5 )  )
( or ( <= ( + X5 87 ) X14 )  ( <= ( + X14 39 ) X5 )  ( <= ( + Y5 8 ) Y14 )  ( <= ( + Y14 78 ) Y5 )  )
( or ( <= ( + X5 87 ) X15 )  ( <= ( + X15 26 ) X5 )  ( <= ( + Y5 8 ) Y15 )  ( <= ( + Y15 44 ) Y5 )  )
( or ( <= ( + X5 87 ) X16 )  ( <= ( + X16 33 ) X5 )  ( <= ( + Y5 8 ) Y16 )  ( <= ( + Y16 59 ) Y5 )  )
( or ( <= ( + X5 87 ) X17 )  ( <= ( + X17 66 ) X5 )  ( <= ( + Y5 8 ) Y17 )  ( <= ( + Y17 18 ) Y5 )  )
( or ( <= ( + X6 80 ) X7 )  ( <= ( + X7 21 ) X6 )  ( <= ( + Y6 31 ) Y7 )  ( <= ( + Y7 59 ) Y6 )  )
( or ( <= ( + X6 80 ) X8 )  ( <= ( + X8 68 ) X6 )  ( <= ( + Y6 31 ) Y8 )  ( <= ( + Y8 30 ) Y6 )  )
( or ( <= ( + X6 80 ) X9 )  ( <= ( + X9 97 ) X6 )  ( <= ( + Y6 31 ) Y9 )  ( <= ( + Y9 67 ) Y6 )  )
( or ( <= ( + X6 80 ) X10 )  ( <= ( + X10 79 ) X6 )  ( <= ( + Y6 31 ) Y10 )  ( <= ( + Y10 7 ) Y6 )  )
( or ( <= ( + X6 80 ) X11 )  ( <= ( + X11 97 ) X6 )  ( <= ( + Y6 31 ) Y11 )  ( <= ( + Y11 76 ) Y6 )  )
( or ( <= ( + X6 80 ) X12 )  ( <= ( + X12 12 ) X6 )  ( <= ( + Y6 31 ) Y12 )  ( <= ( + Y12 83 ) Y6 )  )
( or ( <= ( + X6 80 ) X13 )  ( <= ( + X13 86 ) X6 )  ( <= ( + Y6 31 ) Y13 )  ( <= ( + Y13 94 ) Y6 )  )
( or ( <= ( + X6 80 ) X14 )  ( <= ( + X14 39 ) X6 )  ( <= ( + Y6 31 ) Y14 )  ( <= ( + Y14 78 ) Y6 )  )
( or ( <= ( + X6 80 ) X15 )  ( <= ( + X15 26 ) X6 )  ( <= ( + Y6 31 ) Y15 )  ( <= ( + Y15 44 ) Y6 )  )
( or ( <= ( + X6 80 ) X16 )  ( <= ( + X16 33 ) X6 )  ( <= ( + Y6 31 ) Y16 )  ( <= ( + Y16 59 ) Y6 )  )
( or ( <= ( + X6 80 ) X17 )  ( <= ( + X17 66 ) X6 )  ( <= ( + Y6 31 ) Y17 )  ( <= ( + Y17 18 ) Y6 )  )
( or ( <= ( + X7 21 ) X8 )  ( <= ( + X8 68 ) X7 )  ( <= ( + Y7 59 ) Y8 )  ( <= ( + Y8 30 ) Y7 )  )
( or ( <= ( + X7 21 ) X9 )  ( <= ( + X9 97 ) X7 )  ( <= ( + Y7 59 ) Y9 )  ( <= ( + Y9 67 ) Y7 )  )
( or ( <= ( + X7 21 ) X10 )  ( <= ( + X10 79 ) X7 )  ( <= ( + Y7 59 ) Y10 )  ( <= ( + Y10 7 ) Y7 )  )
( or ( <= ( + X7 21 ) X11 )  ( <= ( + X11 97 ) X7 )  ( <= ( + Y7 59 ) Y11 )  ( <= ( + Y11 76 ) Y7 )  )
( or ( <= ( + X7 21 ) X12 )  ( <= ( + X12 12 ) X7 )  ( <= ( + Y7 59 ) Y12 )  ( <= ( + Y12 83 ) Y7 )  )
( or ( <= ( + X7 21 ) X13 )  ( <= ( + X13 86 ) X7 )  ( <= ( + Y7 59 ) Y13 )  ( <= ( + Y13 94 ) Y7 )  )
( or ( <= ( + X7 21 ) X14 )  ( <= ( + X14 39 ) X7 )  ( <= ( + Y7 59 ) Y14 )  ( <= ( + Y14 78 ) Y7 )  )
( or ( <= ( + X7 21 ) X15 )  ( <= ( + X15 26 ) X7 )  ( <= ( + Y7 59 ) Y15 )  ( <= ( + Y15 44 ) Y7 )  )
( or ( <= ( + X7 21 ) X16 )  ( <= ( + X16 33 ) X7 )  ( <= ( + Y7 59 ) Y16 )  ( <= ( + Y16 59 ) Y7 )  )
( or ( <= ( + X7 21 ) X17 )  ( <= ( + X17 66 ) X7 )  ( <= ( + Y7 59 ) Y17 )  ( <= ( + Y17 18 ) Y7 )  )
( or ( <= ( + X8 68 ) X9 )  ( <= ( + X9 97 ) X8 )  ( <= ( + Y8 30 ) Y9 )  ( <= ( + Y9 67 ) Y8 )  )
( or ( <= ( + X8 68 ) X10 )  ( <= ( + X10 79 ) X8 )  ( <= ( + Y8 30 ) Y10 )  ( <= ( + Y10 7 ) Y8 )  )
( or ( <= ( + X8 68 ) X11 )  ( <= ( + X11 97 ) X8 )  ( <= ( + Y8 30 ) Y11 )  ( <= ( + Y11 76 ) Y8 )  )
( or ( <= ( + X8 68 ) X12 )  ( <= ( + X12 12 ) X8 )  ( <= ( + Y8 30 ) Y12 )  ( <= ( + Y12 83 ) Y8 )  )
( or ( <= ( + X8 68 ) X13 )  ( <= ( + X13 86 ) X8 )  ( <= ( + Y8 30 ) Y13 )  ( <= ( + Y13 94 ) Y8 )  )
( or ( <= ( + X8 68 ) X14 )  ( <= ( + X14 39 ) X8 )  ( <= ( + Y8 30 ) Y14 )  ( <= ( + Y14 78 ) Y8 )  )
( or ( <= ( + X8 68 ) X15 )  ( <= ( + X15 26 ) X8 )  ( <= ( + Y8 30 ) Y15 )  ( <= ( + Y15 44 ) Y8 )  )
( or ( <= ( + X8 68 ) X16 )  ( <= ( + X16 33 ) X8 )  ( <= ( + Y8 30 ) Y16 )  ( <= ( + Y16 59 ) Y8 )  )
( or ( <= ( + X8 68 ) X17 )  ( <= ( + X17 66 ) X8 )  ( <= ( + Y8 30 ) Y17 )  ( <= ( + Y17 18 ) Y8 )  )
( or ( <= ( + X9 97 ) X10 )  ( <= ( + X10 79 ) X9 )  ( <= ( + Y9 67 ) Y10 )  ( <= ( + Y10 7 ) Y9 )  )
( or ( <= ( + X9 97 ) X11 )  ( <= ( + X11 97 ) X9 )  ( <= ( + Y9 67 ) Y11 )  ( <= ( + Y11 76 ) Y9 )  )
( or ( <= ( + X9 97 ) X12 )  ( <= ( + X12 12 ) X9 )  ( <= ( + Y9 67 ) Y12 )  ( <= ( + Y12 83 ) Y9 )  )
( or ( <= ( + X9 97 ) X13 )  ( <= ( + X13 86 ) X9 )  ( <= ( + Y9 67 ) Y13 )  ( <= ( + Y13 94 ) Y9 )  )
( or ( <= ( + X9 97 ) X14 )  ( <= ( + X14 39 ) X9 )  ( <= ( + Y9 67 ) Y14 )  ( <= ( + Y14 78 ) Y9 )  )
( or ( <= ( + X9 97 ) X15 )  ( <= ( + X15 26 ) X9 )  ( <= ( + Y9 67 ) Y15 )  ( <= ( + Y15 44 ) Y9 )  )
( or ( <= ( + X9 97 ) X16 )  ( <= ( + X16 33 ) X9 )  ( <= ( + Y9 67 ) Y16 )  ( <= ( + Y16 59 ) Y9 )  )
( or ( <= ( + X9 97 ) X17 )  ( <= ( + X17 66 ) X9 )  ( <= ( + Y9 67 ) Y17 )  ( <= ( + Y17 18 ) Y9 )  )
( or ( <= ( + X10 79 ) X11 )  ( <= ( + X11 97 ) X10 )  ( <= ( + Y10 7 ) Y11 )  ( <= ( + Y11 76 ) Y10 )  )
( or ( <= ( + X10 79 ) X12 )  ( <= ( + X12 12 ) X10 )  ( <= ( + Y10 7 ) Y12 )  ( <= ( + Y12 83 ) Y10 )  )
( or ( <= ( + X10 79 ) X13 )  ( <= ( + X13 86 ) X10 )  ( <= ( + Y10 7 ) Y13 )  ( <= ( + Y13 94 ) Y10 )  )
( or ( <= ( + X10 79 ) X14 )  ( <= ( + X14 39 ) X10 )  ( <= ( + Y10 7 ) Y14 )  ( <= ( + Y14 78 ) Y10 )  )
( or ( <= ( + X10 79 ) X15 )  ( <= ( + X15 26 ) X10 )  ( <= ( + Y10 7 ) Y15 )  ( <= ( + Y15 44 ) Y10 )  )
( or ( <= ( + X10 79 ) X16 )  ( <= ( + X16 33 ) X10 )  ( <= ( + Y10 7 ) Y16 )  ( <= ( + Y16 59 ) Y10 )  )
( or ( <= ( + X10 79 ) X17 )  ( <= ( + X17 66 ) X10 )  ( <= ( + Y10 7 ) Y17 )  ( <= ( + Y17 18 ) Y10 )  )
( or ( <= ( + X11 97 ) X12 )  ( <= ( + X12 12 ) X11 )  ( <= ( + Y11 76 ) Y12 )  ( <= ( + Y12 83 ) Y11 )  )
( or ( <= ( + X11 97 ) X13 )  ( <= ( + X13 86 ) X11 )  ( <= ( + Y11 76 ) Y13 )  ( <= ( + Y13 94 ) Y11 )  )
( or ( <= ( + X11 97 ) X14 )  ( <= ( + X14 39 ) X11 )  ( <= ( + Y11 76 ) Y14 )  ( <= ( + Y14 78 ) Y11 )  )
( or ( <= ( + X11 97 ) X15 )  ( <= ( + X15 26 ) X11 )  ( <= ( + Y11 76 ) Y15 )  ( <= ( + Y15 44 ) Y11 )  )
( or ( <= ( + X11 97 ) X16 )  ( <= ( + X16 33 ) X11 )  ( <= ( + Y11 76 ) Y16 )  ( <= ( + Y16 59 ) Y11 )  )
( or ( <= ( + X11 97 ) X17 )  ( <= ( + X17 66 ) X11 )  ( <= ( + Y11 76 ) Y17 )  ( <= ( + Y17 18 ) Y11 )  )
( or ( <= ( + X12 12 ) X13 )  ( <= ( + X13 86 ) X12 )  ( <= ( + Y12 83 ) Y13 )  ( <= ( + Y13 94 ) Y12 )  )
( or ( <= ( + X12 12 ) X14 )  ( <= ( + X14 39 ) X12 )  ( <= ( + Y12 83 ) Y14 )  ( <= ( + Y14 78 ) Y12 )  )
( or ( <= ( + X12 12 ) X15 )  ( <= ( + X15 26 ) X12 )  ( <= ( + Y12 83 ) Y15 )  ( <= ( + Y15 44 ) Y12 )  )
( or ( <= ( + X12 12 ) X16 )  ( <= ( + X16 33 ) X12 )  ( <= ( + Y12 83 ) Y16 )  ( <= ( + Y16 59 ) Y12 )  )
( or ( <= ( + X12 12 ) X17 )  ( <= ( + X17 66 ) X12 )  ( <= ( + Y12 83 ) Y17 )  ( <= ( + Y17 18 ) Y12 )  )
( or ( <= ( + X13 86 ) X14 )  ( <= ( + X14 39 ) X13 )  ( <= ( + Y13 94 ) Y14 )  ( <= ( + Y14 78 ) Y13 )  )
( or ( <= ( + X13 86 ) X15 )  ( <= ( + X15 26 ) X13 )  ( <= ( + Y13 94 ) Y15 )  ( <= ( + Y15 44 ) Y13 )  )
( or ( <= ( + X13 86 ) X16 )  ( <= ( + X16 33 ) X13 )  ( <= ( + Y13 94 ) Y16 )  ( <= ( + Y16 59 ) Y13 )  )
( or ( <= ( + X13 86 ) X17 )  ( <= ( + X17 66 ) X13 )  ( <= ( + Y13 94 ) Y17 )  ( <= ( + Y17 18 ) Y13 )  )
( or ( <= ( + X14 39 ) X15 )  ( <= ( + X15 26 ) X14 )  ( <= ( + Y14 78 ) Y15 )  ( <= ( + Y15 44 ) Y14 )  )
( or ( <= ( + X14 39 ) X16 )  ( <= ( + X16 33 ) X14 )  ( <= ( + Y14 78 ) Y16 )  ( <= ( + Y16 59 ) Y14 )  )
( or ( <= ( + X14 39 ) X17 )  ( <= ( + X17 66 ) X14 )  ( <= ( + Y14 78 ) Y17 )  ( <= ( + Y17 18 ) Y14 )  )
( or ( <= ( + X15 26 ) X16 )  ( <= ( + X16 33 ) X15 )  ( <= ( + Y15 44 ) Y16 )  ( <= ( + Y16 59 ) Y15 )  )
( or ( <= ( + X15 26 ) X17 )  ( <= ( + X17 66 ) X15 )  ( <= ( + Y15 44 ) Y17 )  ( <= ( + Y17 18 ) Y15 )  )
( or ( <= ( + X16 33 ) X17 )  ( <= ( + X17 66 ) X16 )  ( <= ( + Y16 59 ) Y17 )  ( <= ( + Y17 18 ) Y16 )  )
( >= X0 0)
( <= ( + X0 35) Z)
( >= Y0 0)
( <= ( + Y0 75 ) 212)
( >= X1 0)
( <= ( + X1 50) Z)
( >= Y1 0)
( <= ( + Y1 96 ) 212)
( >= X2 0)
( <= ( + X2 10) Z)
( >= Y2 0)
( <= ( + Y2 87 ) 212)
( >= X3 0)
( <= ( + X3 14) Z)
( >= Y3 0)
( <= ( + Y3 19 ) 212)
( >= X4 0)
( <= ( + X4 89) Z)
( >= Y4 0)
( <= ( + Y4 14 ) 212)
( >= X5 0)
( <= ( + X5 87) Z)
( >= Y5 0)
( <= ( + Y5 8 ) 212)
( >= X6 0)
( <= ( + X6 80) Z)
( >= Y6 0)
( <= ( + Y6 31 ) 212)
( >= X7 0)
( <= ( + X7 21) Z)
( >= Y7 0)
( <= ( + Y7 59 ) 212)
( >= X8 0)
( <= ( + X8 68) Z)
( >= Y8 0)
( <= ( + Y8 30 ) 212)
( >= X9 0)
( <= ( + X9 97) Z)
( >= Y9 0)
( <= ( + Y9 67 ) 212)
( >= X10 0)
( <= ( + X10 79) Z)
( >= Y10 0)
( <= ( + Y10 7 ) 212)
( >= X11 0)
( <= ( + X11 97) Z)
( >= Y11 0)
( <= ( + Y11 76 ) 212)
( >= X12 0)
( <= ( + X12 12) Z)
( >= Y12 0)
( <= ( + Y12 83 ) 212)
( >= X13 0)
( <= ( + X13 86) Z)
( >= Y13 0)
( <= ( + Y13 94 ) 212)
( >= X14 0)
( <= ( + X14 39) Z)
( >= Y14 0)
( <= ( + Y14 78 ) 212)
( >= X15 0)
( <= ( + X15 26) Z)
( >= Y15 0)
( <= ( + Y15 44 ) 212)
( >= X16 0)
( <= ( + X16 33) Z)
( >= Y16 0)
( <= ( + Y16 59 ) 212)
( >= X17 0)
( <= ( + X17 66) Z)
( >= Y17 0)
( <= ( + Y17 18 ) 212)
) )
(minimize Z)
(check-sat)
